NAME : s-23_t.-550.tour
COMMENT : Length = -550
COMMENT : Found by LKH [Keld Helsgaun] Sun Apr 13 17:05:01 2025
TYPE : TOUR
DIMENSION : 23
TOUR_SECTION
1
3
15
2
9
13
11
7
22
17
10
20
18
12
16
8
21
23
6
5
14
4
19
-1
EOF
